NAME : s-22_t.-524.tour
COMMENT : Length = -524
COMMENT : Found by LKH [Keld Helsgaun] Sun Apr 13 17:05:01 2025
TYPE : TOUR
DIMENSION : 22
TOUR_SECTION
1
3
15
2
9
13
11
7
22
17
10
20
18
12
16
6
4
14
5
21
8
19
-1
EOF
